<?xml version = "1.0" encoding="UTF-8" standalone="yes"?>
<CPLEXSolution version="1.2">
 <header
   problemName="inst_14_cut_n10"
   objectiveValue="1.904761904761914"
   solutionTypeValue="1"
   solutionTypeString="basic"
   solutionStatusValue="1"
   solutionStatusString="optimal"
   solutionMethodString="primal"
   primalFeasible="1"
   dualFeasible="1"
   simplexIterations="0"
   writeLevel="1"/>
 <quality
   epRHS="9.9999999999999995e-07"
   epOpt="9.9999999999999995e-07"
   maxPrimalInfeas="0"
   maxDualInfeas="0"
   maxPrimalResidual="1.0658141036401503e-14"
   maxDualResidual="0"
   maxX="2.2380952380952053"
   maxPi="50.285714285714292"
   maxSlack="187.66666666666663"
   maxRedCost="0"
   kappa="799.32226373479705"/>
 <linearConstraints>
  <constraint name="c0" index="0" status="BS" slack="135.23809523809524" dual="-0"/>
  <constraint name="c1" index="1" status="BS" slack="136.33333333333329" dual="-0"/>
  <constraint name="c2" index="2" status="BS" slack="187.66666666666663" dual="-0"/>
  <constraint name="c3" index="3" status="BS" slack="89.904761904761898" dual="-0"/>
  <constraint name="c4" index="4" status="LL" slack="0" dual="-0"/>
  <constraint name="c5" index="5" status="BS" slack="145.57142857142853" dual="-0"/>
  <constraint name="c6" index="6" status="BS" slack="161.85714285714283" dual="-0"/>
  <constraint name="c7" index="7" status="BS" slack="25.380952380952355" dual="-0"/>
  <constraint name="c8" index="8" status="BS" slack="164.90476190476187" dual="-0"/>
  <constraint name="c9" index="9" status="BS" slack="4.9047619047618642" dual="-0"/>
  <constraint name="cut_1" index="10" status="BS" slack="0.95238095238093567" dual="-0"/>
  <constraint name="cut_2" index="11" status="BS" slack="0.38095238095237294" dual="-0"/>
  <constraint name="cut_3" index="12" status="BS" slack="1.7142857142856727" dual="-0"/>
  <constraint name="cut_4" index="13" status="BS" slack="1.476190476190447" dual="-0"/>
  <constraint name="cut_5" index="14" status="LL" slack="0" dual="50.285714285714292"/>
  <constraint name="cut_6" index="15" status="BS" slack="1.9999999999999583" dual="-0"/>
  <constraint name="cut_7" index="16" status="BS" slack="1.1428571428571326" dual="-0"/>
  <constraint name="cut_8" index="17" status="BS" slack="1.6190476190475893" dual="-0"/>
  <constraint name="cut_9" index="18" status="LL" slack="0" dual="0.95238095238095233"/>
  <constraint name="cut_10" index="19" status="BS" slack="0.52380952380951173" dual="-0"/>
 </linearConstraints>
 <variables>
  <variable name="x0" index="0" status="BS" value="0.095238095238095705" reducedCost="0"/>
  <variable name="x1" index="1" status="BS" value="0" reducedCost="0"/>
  <variable name="s0" index="2" status="LL" value="0" reducedCost="0"/>
  <variable name="s1" index="3" status="LL" value="0" reducedCost="0"/>
  <variable name="s2" index="4" status="LL" value="0" reducedCost="0"/>
  <variable name="s3" index="5" status="LL" value="0" reducedCost="0"/>
  <variable name="s4" index="6" status="BS" value="2.2380952380952053" reducedCost="0"/>
  <variable name="s5" index="7" status="LL" value="0" reducedCost="0"/>
  <variable name="s6" index="8" status="LL" value="0" reducedCost="0"/>
  <variable name="s7" index="9" status="LL" value="0" reducedCost="0"/>
  <variable name="s8" index="10" status="LL" value="0" reducedCost="0"/>
  <variable name="s9" index="11" status="LL" value="0" reducedCost="0"/>
 </variables>
 <objectiveValues>
  <objective index="0" name="" value="1.904761904761914"/>
 </objectiveValues>
</CPLEXSolution>
